33162.41
37 125 160 35 123 71 9 148 117 128 83 136 23 17 115 78 89 48 192 62 5 198 118 191 109 74 113 91 7 168 41 173 156 135 144 96 18 165 52 143 162 150 93 87 15 21 69 183 110 151 186 25 195 64 65 147 3 196 180 132 199 55 79 30 88 102 172 158 140 188 129 167 68 63 39 53 120 1 175 169 43 49 190 194 193 81 94 12 75 32 36 142 4 104 77 51 155 95 185 38 170 137 127 47 99 70 40 157 2 133 189 124 116 42 45 28 13 197 187 138 29 171 182 161 149 84 67 72 122 134 101 80 24 60 176 66 27 159 103 0 92 57 179 50 86 105 153 174 82 121 33 107 54 6 8 56 130 166 146 19 11 26 85 34 141 154 163 119 61 59 178 76 164 112 114 22 97 126 90 44 184 100 14 16 10 152 31 139 46 111 145 20 73 58 131 98 106 181 177 108